
  22   10
  10   10   10   10   10   10   10   10   10   10

   0   0   0   0   0   0   0   0   0   0   0   5 2 4 5 6 11 
   7  10  10  10  10  10  10  10  10  10  10   3 13 9 3 
   7  10  10  10  10  10  10  10  10  10  10   4 17 14 8 7 
   4  10  10  10  10  10  10  10  10  10  10   4 17 14 13 7 
   8  10  10  10  10  10  10  10  10  10  10   4 17 13 10 7 
   2  10  10  10  10  10  10  10  10  10  10   6 17 16 14 13 12 8 
   8  10  10  10  10  10  10  10  10  10  10   4 21 18 16 12 
   6  10  10  10  10  10  10  10  10  10  10   2 20 15 
   9  10  10  10  10  10  10  10  10  10  10   1 12 
   5  10  10  10  10  10  10  10  10  10  10   2 20 19 
   8  10  10  10  10  10  10  10  10  10  10   2 21 19 
   6  10  10  10  10  10  10  10  10  10  10   1 15 
   1  10  10  10  10  10  10  10  10  10  10   1 15 
   1  10  10  10  10  10  10  10  10  10  10   1 15 
   2  10  10  10  10  10  10  10  10  10  10   1 19 
  10  10  10  10  10  10  10  10  10  10  10   1 20 
   9  10  10  10  10  10  10  10  10  10  10   1 19 
   5  10  10  10  10  10  10  10  10  10  10   1 20 
   8  10  10  10  10  10  10  10  10  10  10   1 22
   5  10  10  10  10  10  10  10  10  10  10   1 22
   5  10  10  10  10  10  10  10  10  10  10   1 22
   0   0   0   0   0   0   0   0   0   0   0   0 
